
Log started (V20.1.0.0) Sat Aug 20 03:05:57 2022


Problem 'pd.lp' read.
Read time = 0.00 sec. (0.00 ticks)
Version identifier: 20.1.0.0 | 2020-11-10 | 9bedb6d68
Bound infeasibility column 'w3'.
Presolve time = 0.00 sec. (0.00 ticks)
Presolve - Infeasible.
Solution time =    0.00 sec.
Deterministic time = 0.00 ticks  (0.36 ticks/sec)

Log started (V20.1.0.0) Sat Aug 20 03:08:41 2022


Problem 'pp.lp' read.
Read time = 0.00 sec. (0.00 ticks)
Version identifier: 20.1.0.0 | 2020-11-10 | 9bedb6d68
Tried aggregator 1 time.
LP Presolve eliminated 3 rows and 4 columns.
All rows and columns eliminated.
Presolve time = 0.00 sec. (0.00 ticks)

Dual simplex - Optimal:  Objective =  0.0000000000e+00
Solution time =    0.00 sec.  Iterations = 0 (0)
Deterministic time = 0.00 ticks  (2.23 ticks/sec)


All variables matching '*' are 0.

Log started (V20.1.0.0) Sat Aug 20 03:09:36 2022


Problem 'pp.lp' read.
Read time = 0.00 sec. (0.00 ticks)
Version identifier: 20.1.0.0 | 2020-11-10 | 9bedb6d68
Tried aggregator 1 time.
No LP presolve or aggregator reductions.
Presolve time = 0.00 sec. (0.00 ticks)

Iteration log . . .
Iteration:     1   Dual infeasibility =             1.999998
Iteration:     3   Dual objective     =           -13.000000

Dual simplex - Optimal:  Objective = -1.3000000000e+01
Solution time =    0.00 sec.  Iterations = 3 (2)
Deterministic time = 0.01 ticks  (5.39 ticks/sec)


Variable Name           Solution Value
x1                            2.000000
x2                            2.000000
x3                            1.000000
All other variables matching '*' are 0.

Log started (V20.1.0.0) Sat Aug 20 03:11:49 2022


Problem 'pd.lp' read.
Read time = 0.00 sec. (0.00 ticks)
Version identifier: 20.1.0.0 | 2020-11-10 | 9bedb6d68
Bound infeasibility column 'w3'.
Presolve time = 0.00 sec. (0.00 ticks)
Presolve - Infeasible.
Solution time =    0.00 sec.
Deterministic time = 0.00 ticks  (0.36 ticks/sec)
No solution exists.

Log started (V20.1.0.0) Sat Aug 20 03:12:10 2022


Problem 'pd.lp' read.
Read time = 0.00 sec. (0.00 ticks)
Version identifier: 20.1.0.0 | 2020-11-10 | 9bedb6d68
Bound infeasibility column 'w3'.
Presolve time = 0.00 sec. (0.00 ticks)

Log started (V20.1.0.0) Sat Aug 20 03:12:56 2022


Problem 'pp.lp' read.
Read time = 0.00 sec. (0.00 ticks)
Version identifier: 20.1.0.0 | 2020-11-10 | 9bedb6d68
Tried aggregator 1 time.
No LP presolve or aggregator reductions.
Presolve time = 0.00 sec. (0.00 ticks)

Iteration log . . .
Iteration:     1   Dual infeasibility =             1.999998
Iteration:     3   Dual objective     =           -13.900000

Dual simplex - Optimal:  Objective = -1.3900000000e+01
Solution time =    0.00 sec.  Iterations = 3 (2)
Deterministic time = 0.01 ticks  (5.39 ticks/sec)


Variable Name           Solution Value
x1                            3.200000
x2                            1.600000
x3                            1.100000
All other variables matching '*' are 0.

Log started (V20.1.0.0) Sat Aug 20 03:13:43 2022


Problem 'pd.lp' read.
Read time = 0.00 sec. (0.00 ticks)
Version identifier: 20.1.0.0 | 2020-11-10 | 9bedb6d68
Bound infeasibility column 'w3'.
Presolve time = 0.00 sec. (0.00 ticks)
